;; sequence(s): A309083
;; terms: 1 2 3 4 5 6 7 8 9 10 11 12 13 14 15 15 16 17 18 19
;; small program: x - loop((x - 1) div 2, 2 + 2, x)
;; fast program: 1 + (x - ((1 + x) div (2 * (2 * (2 + 2)))))
(set-logic UFNIA)
(define-fun divf ((a Int) (b Int)) Int (ite (< 0 b) (div a b) (div (- a) (- b))))
(declare-fun f0 (Int) Int)
(declare-fun g0 () Int)
(declare-fun h0 (Int) Int)
(declare-fun u0 (Int Int) Int)
(declare-fun v0 (Int) Int)
(declare-fun small (Int) Int)
(declare-fun fast (Int) Int)
(assert (forall ((x Int)) (= (f0 x) (divf (- x 1) 2))))
(assert (= g0 (+ 2 2)))
(assert (forall ((x Int)) (= (h0 x) x)))
(assert (forall ((x Int) (y Int)) (= (u0 x y) (ite (<= x 0) y (f0 (u0 (- x 1) y))))))
(assert (forall ((x Int)) (= (v0 x) (u0 g0 (h0 x)))))
(assert (forall ((x Int)) (= (small x) (- x (v0 x)))))
(assert (forall ((x Int)) (= (fast x) (+ 1 (- x (divf (+ 1 x) (* 2 (* 2 (+ 2 2)))))))))
(assert (exists ((c Int)) (and (>= c 0) (not (= (small c) (fast c))))))
(check-sat)
